Set parameter Username
Academic license - for non-commercial use only - expires 2024-04-24
Set parameter TimeLimit to value 300
Gurobi Optimizer version 10.0.2 build v10.0.2rc0 (win64)

CPU model: Intel(R) Core(TM) i7-10750H CPU @ 2.60GHz, instruction set [SSE2|AVX|AVX2]
Thread count: 6 physical cores, 12 logical processors, using up to 12 threads

Optimize a model with 336 rows, 2698 columns and 1202 nonzeros
Model fingerprint: 0x7c650f3a
Model has 2332 quadratic constraints
Variable types: 20 continuous, 2678 integer (2678 binary)
Coefficient statistics:
  Matrix range     [1e+00, 1e+06]
  QMatrix range    [1e+00, 1e+00]
  QLMatrix range   [1e+00, 1e+06]
  Objective range  [1e+00, 1e+00]
  Bounds range     [1e+00, 1e+00]
  RHS range        [1e+00, 1e+06]
Presolve added 3 rows and 0 columns
Presolve removed 0 rows and 644 columns
Presolve time: 0.02s
Presolved: 11716 rows, 5351 columns, 30742 nonzeros
Variable types: 1558 continuous, 3793 integer (3793 binary)

Root relaxation: objective 0.000000e+00, 739 iterations, 0.07 seconds (0.11 work units)

    Nodes    |    Current Node    |     Objective Bounds      |     Work
 Expl Unexpl |  Obj  Depth IntInf | Incumbent    BestBd   Gap | It/Node Time

     0     0    0.00000    0   38          -    0.00000      -     -    0s
     0     0    0.00000    0   88          -    0.00000      -     -    1s
     0     0    0.00000    0  110          -    0.00000      -     -    2s
     0     0    0.00000    0   91          -    0.00000      -     -    2s
     0     0    0.00000    0   82          -    0.00000      -     -    4s
     0     0    0.00000    0   56          -    0.00000      -     -    7s
     0     0    0.00000    0  124          -    0.00000      -     -    7s
     0     0    0.00000    0   28          -    0.00000      -     -    8s
     0     0    0.00000    0  115          -    0.00000      -     -    8s
     0     0    0.00000    0   61          -    0.00000      -     -    9s
     0     0    0.00000    0   66          -    0.00000      -     -    9s
H    0     0                     642.9356774    0.00000   100%     -   11s
H    0     0                     557.7972276    0.00000   100%     -   11s
     0     0    0.00000    0   42  557.79723    0.00000   100%     -   11s
     0     0    0.00000    0   42  557.79723    0.00000   100%     -   11s
     0     0    0.00000    0   42  557.79723    0.00000   100%     -   11s
     0     2    0.00000    0   42  557.79723    0.00000   100%     -   12s
    63    43    0.00000   10   63  557.79723    0.00000   100%   452   15s
H   64    43                     557.7972275    0.00000   100%   445   15s
H   67    43                     553.6361339    0.00000   100%   550   15s
H   97    79                     546.2737692    0.00000   100%   456   16s
H  101    79                     523.3813444    0.00000   100%   447   16s
H  187   184                     523.3813443    0.00000   100%   321   18s
H  188   184                     406.6685387    0.00000   100%   320   18s
   308   264    0.00000   31   48  406.66854    0.00000   100%   254   21s
H  343   264                     371.5162303    0.00000   100%   251   21s
H  487   591                     371.3012125    0.00000   100%   245   24s
H  768   591                     365.7208067    0.00000   100%   206   24s
  1257   960 infeasible   62       365.72081    0.00000   100%   161   26s
H 2315  1037                     359.6826497    0.00000   100%   136   29s
H 2542   983                     277.0544494    0.00000   100%   131   29s
  2562   959   45.83968   72  710  277.05445    0.00000   100%   131   34s
  2565   961  144.98263   63   60  277.05445    0.00000   100%   131   35s
  2572   966    0.00000   87   62  277.05445    0.00000   100%   131   40s
H 2575   919                     277.0544493    0.00000   100%   130   42s
  2581   923    0.00000   80   59  277.05445    0.00000   100%   130   45s
  2638   955    0.00000   17   63  277.05445    0.00000   100%   172   50s
H 2804   967                     269.1023722    0.00000   100%   195   54s
  2875   998  167.38134   33   19  269.10237    0.00000   100%   200   57s
H 2978   919                     269.1023722    0.00000   100%   207   57s
  3006  1002    0.00000   38   32  269.10237    0.00000   100%   209   60s
  3504   938    0.00000   18   42  269.10237    0.00000   100%   247   67s
  3675   962    0.00000   20   39  269.10237    0.00000   100%   257   73s
  4068   946  238.38646   42   29  269.10237    0.00000   100%   274   77s
  4599   939    0.00000   30   31  269.10237    0.00000   100%   296   81s
  5089   952    0.00000   28   37  269.10237    0.00000   100%   303   85s
  6256  1194 infeasible   43       269.10237    0.00000   100%   327   93s
  6863  1283   22.91984   31   55  269.10237    0.00000   100%   340  100s
H 7600  1384                     268.6592640    0.00000   100%   344  104s
  7771  1555 infeasible   47       268.65926    0.00000   100%   346  113s
H 8018  1555                     268.6592639    0.00000   100%   347  113s
  8453  1631 infeasible   36       268.65926    0.00000   100%   350  118s
H 8681  1631                     268.6592638    0.00000   100%   355  118s
  8994  1758 infeasible   30       268.65926    0.00000   100%   355  123s
H 9328  1758                     268.6592633    0.00000   100%   356  123s
  9584  1922    0.00000   35   39  268.65926    0.00000   100%   359  128s
 10433  1981    0.00000   31   36  268.65926    0.00000   100%   363  134s
H10695  1981                     268.6592628    0.00000   100%   364  134s
 10740  2120    0.00000   45   39  268.65926    0.00000   100%   364  139s
H11710  2215                     268.6592628    0.00000   100%   370  145s
 12311  2427    0.00000   36   30  268.65926    0.00000   100%   373  151s
 13265  2464  207.01714   29   44  268.65926    0.00000   100%   375  160s
 13718  2794 infeasible   28       268.65926    0.00000   100%   374  171s
 15561  2954  163.24714   55   42  268.65926    0.00000   100%   380  176s
 16399  3047    0.00000   31   49  268.65926    0.00000   100%   380  182s
 17173  3206  146.61339   24   43  268.65926    0.00000   100%   379  189s
 18191  3271    0.00000   18   48  268.65926    0.00000   100%   379  194s
 18977  3447    0.00000   22   50  268.65926    0.00000   100%   381  201s
 19769  3625 infeasible   30       268.65926    0.00000   100%   382  207s
 20750  3737 infeasible   46       268.65926    0.00000   100%   387  213s
 21362  3853  144.00096   28   47  268.65926    0.00000   100%   388  220s
 22198  4002    0.00000   53   32  268.65926    0.00000   100%   389  227s
 23375  4093    0.00000   38   33  268.65926    0.00000   100%   390  233s
 24440  4264 infeasible   26       268.65926    0.00000   100%   390  240s
 25316  4283   83.19466   29   41  268.65926    0.00000   100%   391  247s
 25361  4406  206.37834   32   48  268.65926    0.00000   100%   391  253s
 26204  4407    0.00000   34  662  268.65926    0.00000   100%   391  264s
 26207  4409  104.09317   39   77  268.65926    0.00000   100%   391  265s
 26219  4417  194.52235   28   74  268.65926    0.00000   100%   391  270s
 26244  4435    0.00000   25   72  268.65926    0.00000   100%   393  275s
 26324  4454    0.00000   30   55  268.65926    0.00000   100%   395  280s
 26481  4527 infeasible   39       268.65926    0.00000   100%   400  286s
 26720  4565    0.00000   29   53  268.65926    0.00000   100%   402  294s
 26982  4506    0.09880   46   68  268.65926    0.00000   100%   406  299s
 27305  4394 infeasible   49       268.65926    0.00000   100%   411  300s

Cutting planes:
  Cover: 11
  Implied bound: 57
  Projected implied bound: 4
  Clique: 3
  MIR: 16
  Flow cover: 29
  GUB cover: 3
  Zero half: 1
  RLT: 2
  Relax-and-lift: 13

Explored 27349 nodes (11302445 simplex iterations) in 300.02 seconds (432.63 work units)
Thread count was 12 (of 12 available processors)

Solution count 10: 268.659 268.659 268.659 ... 406.669

Time limit reached
Best objective 2.686592627607e+02, best bound 0.000000000000e+00, gap 100.0000%
x
k = 0
0 -> 7 , 0 -> 1
1 -> 0 , 0 -> 1
4 -> 6 , 0 -> 1
5 -> 4 , 0 -> 1
6 -> 1 , 0 -> 1
7 -> 5 , 0 -> 1
k = 1
k = 2
0 -> 3 , 2 -> 1
2 -> 0 , 2 -> 1
3 -> 2 , 2 -> 1
y
k = 0
0 , 0 -> 1
1 , 0 -> 1
4 , 0 -> 1
5 , 0 -> 1
6 , 0 -> 1
7 , 0 -> 1
k = 1
0 , 1 -> 1
k = 2
0 , 2 -> 1
2 , 2 -> 1
3 , 2 -> 1
h_depot
0 , 0 -> 1
1 , 8 -> 1
2 , 2 -> 1
h_customers
1 , 2 -> 1
2 , 4 -> 1
3 , 3 -> 1
4 , 1 -> 1
5 , 1 -> 1
6 , 1 -> 1
7 , 0 -> 1
t_depot
0: 0
1: 540
2: 176.52
t_customers
1: 151.537
2: 264.684
3: 221.861
4: 80.1271
5: 68.3694
6: 98.9738
7: 45.9671
Objective: 268.659262760745